Traveling Salesman Problem/TSP_generados/Aleatorio1621103449_14.tsp
NAME: Aleatorio1621103449_14.tsp
COMMENT: Randomly generated scenario
TYPE: TSP
DIMENSION: 14
EDGE_WEIGHT_TYPE: ATT
NODE_COORD_SECTION
1 23.87 27.98
2 40.03 18.68
3 13.68 16.18
4 39.95 32.89
5 35.51 22.46
6 10.69 25.51
7 26.74 38.74
8 7.66 15.88
9 40.62 23.22
10 21.85 19.61
11 23.8 18.61
12 49.42 20.72
13 13.89 37.54
14 42.54 13.26
