Traveling Salesman Problem/TSP_generados/Aleatorio1621103449_14.opt.tour
NAME: Aleatorio1621103449_14.opt.tour
COMMENT: Optimal solution for Aleatorio1621103449_14 (130.08444284926816)
TYPE: TOUR
DIMENSION: 14
TOUR_SECTION
1 5 2 14 12 9 4 7 13 6 8 3 10 11
-1
EOF
